c File: instances/40_0.45_3.col
c
c Description: Random graph of size 40 vertices and P(0.44999999999999996) of edges between any two vertices.
p col 40 780
e 1 3
e 1 6
e 1 7
e 1 8
e 1 9
e 1 10
e 1 14
e 1 16
e 1 17
e 1 20
e 1 27
e 1 31
e 1 35
e 1 37
e 1 38
e 2 5
e 2 6
e 2 7
e 2 9
e 2 14
e 2 17
e 2 21
e 2 34
e 2 35
e 3 5
e 3 6
e 3 10
e 3 12
e 3 13
e 3 17
e 3 21
e 3 22
e 3 27
e 3 28
e 3 29
e 3 33
e 3 37
e 3 40
e 4 9
e 4 10
e 4 12
e 4 13
e 4 16
e 4 17
e 4 25
e 4 27
e 4 28
e 4 31
e 4 38
e 4 40
e 5 7
e 5 8
e 5 12
e 5 15
e 5 19
e 5 21
e 5 24
e 5 28
e 5 29
e 5 33
e 5 34
e 5 36
e 5 38
e 6 7
e 6 9
e 6 13
e 6 19
e 6 22
e 6 23
e 6 27
e 6 30
e 6 31
e 6 32
e 6 36
e 6 37
e 6 38
e 6 39
e 7 10
e 7 12
e 7 13
e 7 15
e 7 16
e 7 18
e 7 20
e 7 25
e 7 26
e 7 27
e 7 31
e 7 35
e 7 37
e 7 39
e 8 9
e 8 10
e 8 11
e 8 12
e 8 13
e 8 16
e 8 21
e 8 23
e 8 26
e 8 27
e 8 28
e 8 29
e 8 30
e 8 32
e 8 33
e 8 34
e 8 35
e 8 37
e 9 16
e 9 17
e 9 19
e 9 20
e 9 25
e 9 26
e 9 29
e 9 33
e 9 35
e 9 36
e 9 38
e 9 39
e 9 40
e 10 12
e 10 13
e 10 17
e 10 20
e 10 22
e 10 24
e 10 25
e 10 26
e 10 27
e 10 29
e 10 31
e 10 32
e 10 33
e 10 34
e 11 12
e 11 22
e 11 24
e 11 27
e 11 28
e 11 29
e 11 31
e 11 33
e 11 34
e 11 39
e 12 13
e 12 18
e 12 19
e 12 20
e 12 21
e 12 22
e 12 23
e 12 26
e 12 29
e 12 30
e 12 33
e 12 34
e 12 38
e 13 14
e 13 20
e 13 21
e 13 23
e 13 24
e 13 26
e 13 28
e 13 30
e 13 34
e 13 37
e 13 39
e 13 40
e 14 15
e 14 19
e 14 22
e 14 25
e 14 26
e 14 30
e 14 31
e 14 32
e 14 34
e 14 35
e 14 37
e 14 38
e 14 39
e 14 40
e 15 17
e 15 18
e 15 19
e 15 21
e 15 22
e 15 23
e 15 24
e 15 29
e 15 30
e 15 32
e 15 34
e 15 35
e 15 37
e 15 38
e 16 22
e 16 24
e 16 25
e 16 27
e 16 31
e 16 32
e 16 33
e 16 35
e 16 38
e 16 39
e 17 21
e 17 22
e 17 23
e 17 29
e 17 33
e 17 34
e 17 35
e 17 36
e 17 37
e 17 38
e 18 19
e 18 23
e 18 25
e 18 26
e 18 28
e 18 31
e 18 32
e 18 34
e 18 36
e 18 37
e 18 38
e 18 39
e 18 40
e 19 20
e 19 21
e 19 26
e 19 28
e 19 32
e 19 33
e 19 36
e 20 27
e 20 28
e 20 33
e 20 34
e 20 35
e 20 37
e 21 24
e 21 25
e 21 26
e 21 29
e 21 35
e 21 37
e 21 39
e 21 40
e 22 23
e 22 24
e 22 26
e 22 28
e 22 31
e 22 32
e 22 35
e 22 39
e 22 40
e 23 25
e 23 27
e 23 28
e 23 29
e 23 30
e 23 31
e 23 32
e 23 33
e 23 37
e 24 25
e 24 29
e 24 30
e 24 33
e 24 36
e 24 38
e 24 39
e 25 26
e 25 30
e 25 32
e 25 33
e 25 34
e 25 35
e 25 39
e 25 40
e 26 28
e 26 31
e 26 34
e 26 35
e 26 38
e 26 39
e 27 28
e 27 32
e 27 33
e 27 34
e 27 35
e 27 36
e 27 39
e 27 40
e 28 29
e 28 30
e 28 32
e 28 35
e 28 36
e 28 38
e 28 39
e 28 40
e 29 32
e 29 33
e 29 34
e 29 35
e 29 36
e 29 37
e 29 39
e 30 31
e 30 33
e 31 32
e 31 33
e 31 36
e 31 37
e 31 40
e 32 38
e 32 39
e 32 40
e 33 34
e 33 36
e 33 38
e 33 40
e 34 37
e 34 38
e 34 40
e 36 37
e 36 39
e 37 39
e 37 40
e 38 40